NAME: cluster_1
TYPE: TSP
DIMENSION: 9
EDGE_WEIGHT_TYPE: EUC_2D
NODE_COORD_SECTION
1 12000.00 16000.00
2 21421.42 9712.14
3 20290.42 8394.95
4 19929.29 11247.65
5 21458.86 8550.56
6 20484.69 12318.47
7 15331.73 9685.08
8 21881.86 10658.32
9 19429.07 14275.38
EOF
